150
126
186
480
228
108
176
102
153
120
240
188
360
100
387
320
490
117
28
225
210
416
164
186
192
111
104
308
231
100
360
174
46
288
175
84
31
441
304
27
405
102
357
410
240
94
333
78
172
224
50
78
28
368
70
156
294
62
288
333
108
396
297
153
80
232
329
180
225
215
224
392
152
168
360
170
156
123
120
192
111
78
132
297
50
78
290
230
175
75
252
279
490
114
81
132
204
357
40
210
